
Gurobi 6.5.2 (linux64) logging started Tue Sep 20 21:16:18 2016


Gurobi 6.5.2 (linux64) logging started Tue Sep 20 21:16:18 2016

Optimize a model with 21 rows, 33 columns and 73 nonzeros
Coefficient statistics:
  Matrix range    [1e+00, 2e+00]
  Objective range [6e+00, 1e+02]
  Bounds range    [1e+00, 1e+00]
  RHS range       [1e+00, 1e+00]
Found heuristic solution: objective 465
Presolve removed 8 rows and 4 columns
Presolve time: 0.00s
Presolved: 13 rows, 29 columns, 60 nonzeros
Variable types: 0 continuous, 29 integer (29 binary)

Root relaxation: objective 3.415000e+02, 13 iterations, 0.00 seconds

    Nodes    |    Current Node    |     Objective Bounds      |     Work
 Expl Unexpl |  Obj  Depth IntInf | Incumbent    BestBd   Gap | It/Node Time

     0     0  341.50000    0    4  465.00000  341.50000  26.6%     -    0s
H    0     0                     430.0000000  341.50000  20.6%     -    0s
H    0     0                     406.0000000  341.50000  15.9%     -    0s
*    0     0               0     345.0000000  345.00000  0.00%     -    0s

Cutting planes:
  Gomory: 3
  Cover: 6
  Clique: 1

Explored 0 nodes (15 simplex iterations) in 0.00 seconds
Thread count was 8 (of 8 available processors)

Optimal solution found (tolerance 1.00e-04)
Best objective 3.450000000000e+02, best bound 3.450000000000e+02, gap 0.0%
